18
QM9 sample molecule
H 0.000000 0.000000 0.000000
C 0.000000 0.000000 1.089000
H 0.000000 1.024000 1.463000
H 0.000000 -1.024000 1.463000
C 1.089000 0.000000 -0.628000
H 1.463000 0.000000 -1.652000
C -1.089000 0.000000 -0.628000
H -1.463000 0.000000 -1.652000
O 0.000000 0.000000 2.257000
H 0.000000 0.925000 2.555000
N 0.000000 0.000000 -1.457000
O 0.000000 0.000000 -2.689000
C 0.000000 1.089000 -0.628000
H 0.000000 1.463000 -1.652000
C 0.000000 -1.089000 -0.628000
H 0.000000 -1.463000 -1.652000
C 0.000000 0.000000 3.657000
H 0.000000 0.000000 4.750000
